
n_res = 6;
rcap = [45, 56, 1111, 1066, 1227, 1196];
rtype = [1, 1, 2, 2, 2, 2];
n_tasks = 100;
modes =  [{1, 2, 3, 4, 5, 6}, {7, 8, 9, 10, 11, 12}, {13, 14, 15, 16, 17, 18}, {19, 20, 21, 22, 23, 24}, {25, 26, 27, 28, 29, 30}, {31, 32, 33, 34, 35, 36}, {37, 38, 39, 40, 41, 42}, {43, 44, 45, 46, 47, 48}, {49, 50, 51, 52, 53, 54}, {55, 56, 57, 58, 59, 60}, {61, 62, 63, 64, 65, 66}, {67, 68, 69, 70, 71, 72}, {73, 74, 75, 76, 77, 78}, {79, 80, 81, 82, 83, 84}, {85, 86, 87, 88, 89, 90}, {91, 92, 93, 94, 95, 96}, {97, 98, 99, 100, 101, 102}, {103, 104, 105, 106, 107, 108}, {109, 110, 111, 112, 113, 114}, {115, 116, 117, 118, 119, 120}, {121, 122, 123, 124, 125, 126}, {127, 128, 129, 130, 131, 132}, {133, 134, 135, 136, 137, 138}, {139, 140, 141, 142, 143, 144}, {145, 146, 147, 148, 149, 150}, {151, 152, 153, 154, 155, 156}, {157, 158, 159, 160, 161, 162}, {163, 164, 165, 166, 167, 168}, {169, 170, 171, 172, 173, 174}, {175, 176, 177, 178, 179, 180}, {181, 182, 183, 184, 185, 186}, {187, 188, 189, 190, 191, 192}, {193, 194, 195, 196, 197, 198}, {199, 200, 201, 202, 203, 204}, {205, 206, 207, 208, 209, 210}, {211, 212, 213, 214, 215, 216}, {217, 218, 219, 220, 221, 222}, {223, 224, 225, 226, 227, 228}, {229, 230, 231, 232, 233, 234}, {235, 236, 237, 238, 239, 240}, {241, 242, 243, 244, 245, 246}, {247, 248, 249, 250, 251, 252}, {253, 254, 255, 256, 257, 258}, {259, 260, 261, 262, 263, 264}, {265, 266, 267, 268, 269, 270}, {271, 272, 273, 274, 275, 276}, {277, 278, 279, 280, 281, 282}, {283, 284, 285, 286, 287, 288}, {289, 290, 291, 292, 293, 294}, {295, 296, 297, 298, 299, 300}, {301, 302, 303, 304, 305, 306}, {307, 308, 309, 310, 311, 312}, {313, 314, 315, 316, 317, 318}, {319, 320, 321, 322, 323, 324}, {325, 326, 327, 328, 329, 330}, {331, 332, 333, 334, 335, 336}, {337, 338, 339, 340, 341, 342}, {343, 344, 345, 346, 347, 348}, {349, 350, 351, 352, 353, 354}, {355, 356, 357, 358, 359, 360}, {361, 362, 363, 364, 365, 366}, {367, 368, 369, 370, 371, 372}, {373, 374, 375, 376, 377, 378}, {379, 380, 381, 382, 383, 384}, {385, 386, 387, 388, 389, 390}, {391, 392, 393, 394, 395, 396}, {397, 398, 399, 400, 401, 402}, {403, 404, 405, 406, 407, 408}, {409, 410, 411, 412, 413, 414}, {415, 416, 417, 418, 419, 420}, {421, 422, 423, 424, 425, 426}, {427, 428, 429, 430, 431, 432}, {433, 434, 435, 436, 437, 438}, {439, 440, 441, 442, 443, 444}, {445, 446, 447, 448, 449, 450}, {451, 452, 453, 454, 455, 456}, {457, 458, 459, 460, 461, 462}, {463, 464, 465, 466, 467, 468}, {469, 470, 471, 472, 473, 474}, {475, 476, 477, 478, 479, 480}, {481, 482, 483, 484, 485, 486}, {487, 488, 489, 490, 491, 492}, {493, 494, 495, 496, 497, 498}, {499, 500, 501, 502, 503, 504}, {505, 506, 507, 508, 509, 510}, {511, 512, 513, 514, 515, 516}, {517, 518, 519, 520, 521, 522}, {523, 524, 525, 526, 527, 528}, {529, 530, 531, 532, 533, 534}, {535, 536, 537, 538, 539, 540}, {541, 542, 543, 544, 545, 546}, {547, 548, 549, 550, 551, 552}, {553, 554, 555, 556, 557, 558}, {559, 560, 561, 562, 563, 564}, {565, 566, 567, 568, 569, 570}, {571, 572, 573, 574, 575, 576}, {577, 578, 579, 580, 581, 582}, {583, 584, 585, 586, 587, 588}, {589, 590, 591, 592, 593, 594}, {595, 596, 597, 598, 599, 600}];
succ =  [{51, 43, 40, 36, 35, 34, 30, 29, 28, 23, 22, 20, 19, 16}, {44, 42, 37, 36, 35, 32, 25, 22, 9}, {57, 51, 50, 49, 46, 44, 42, 40, 39, 36, 35, 34, 32, 31, 29}, {44, 35, 34, 32, 9}, {55, 51, 49, 47, 46, 43, 36, 22, 19}, {55, 50, 48, 46, 38, 29, 28, 16}, {57, 54, 52, 50, 48, 46, 43, 42, 37, 35, 24}, {68, 55, 53, 52, 49, 48, 47, 46, 42, 36, 22}, {51, 49, 43, 41, 20}, {68, 61, 60, 58, 57, 56, 54, 53, 52, 49, 42, 37, 35}, {67, 50, 49, 46, 42, 36, 25}, {67, 57, 50, 47, 46, 38, 25}, {60, 57, 56, 55, 50, 48, 46, 45, 38, 32}, {55, 52, 49, 46, 45, 44, 43, 38, 36}, {69, 58, 57, 56, 52, 46, 44, 28}, {61, 57, 42, 32, 25}, {57, 48, 46, 36, 25}, {68, 67, 61, 60, 59, 58, 57, 56, 55, 54, 49, 48, 45, 42}, {68, 61, 60, 59, 56, 54, 53, 52, 50, 48, 45, 42, 41}, {67, 62, 60, 57, 56, 55, 54, 53, 52, 50, 46, 38}, {62, 58, 57, 56, 54, 43, 39, 36}, {69, 67, 66, 65, 63, 61, 60, 59, 58, 57, 56, 54, 50, 45}, {74, 67, 61, 60, 59, 58, 53, 47, 46, 45, 42}, {100, 74, 69, 68, 67, 65, 59, 58, 56, 53, 45, 44}, {69, 68, 66, 60, 59, 58, 56, 54, 53, 52, 45}, {62, 58, 56, 55, 52, 46, 44, 36}, {80, 69, 68, 63, 62, 59, 54, 51, 42, 41}, {68, 67, 61, 54, 53, 49, 39}, {78, 70, 69, 68, 67, 66, 64, 62, 61, 60, 59, 58, 56, 54}, {74, 73, 68, 64, 61, 59, 58, 56, 49, 48}, {67, 61, 60, 59, 58, 54, 52, 45}, {91, 78, 74, 73, 71, 69, 68, 67, 66, 64, 62, 59, 52}, {100, 78, 68, 67, 61, 56, 52, 42}, {100, 90, 78, 74, 73, 71, 69, 65, 64, 63, 62, 61, 59, 56}, {100, 92, 81, 80, 74, 70, 69, 67, 66, 65, 59, 45}, {100, 90, 81, 80, 79, 78, 69, 66, 65, 64, 63, 61, 60, 59}, {100, 92, 91, 80, 78, 74, 72, 71, 67, 66, 65, 64, 59, 55}, {100, 90, 80, 78, 74, 73, 68, 66, 65, 64, 63, 61, 58}, {100, 99, 91, 90, 80, 79, 78, 74, 72, 71, 65, 64, 63, 60, 59}, {100, 99, 97, 91, 80, 74, 73, 71, 65, 64, 63, 62, 55}, {98, 97, 91, 78, 77, 76, 73, 72, 71, 67, 66, 65}, {97, 93, 91, 90, 81, 77, 76, 73, 72, 71, 66, 64}, {96, 92, 91, 88, 78, 77, 76, 70, 68, 67, 65, 64}, {99, 97, 96, 95, 90, 63, 61, 60}, {99, 97, 95, 93, 91, 79, 78, 77, 71, 64, 62}, {100, 99, 95, 93, 73, 72, 71, 64, 63}, {100, 96, 95, 90, 79, 76, 65, 64, 56}, {99, 98, 97, 96, 95, 91, 87, 79, 75, 72, 69, 63}, {100, 92, 91, 90, 78, 76, 72, 70, 66, 65}, {100, 99, 98, 97, 95, 94, 93, 92, 91, 89, 87, 78, 76, 72, 71}, {99, 97, 96, 95, 94, 93, 90, 87, 86, 84, 79, 75, 73, 72}, {97, 95, 85, 81, 80, 65, 63}, {97, 93, 92, 89, 88, 87, 80, 79, 77, 76, 75, 71, 70}, {100, 98, 97, 95, 94, 93, 91, 90, 89, 85, 84, 82, 81, 74}, {98, 96, 95, 89, 87, 81, 77, 76, 70, 69}, {99, 94, 93, 87, 85, 84, 83, 81, 80, 77, 75}, {95, 94, 93, 89, 87, 85, 84, 78, 77, 76, 75}, {97, 95, 94, 92, 88, 87, 77, 76, 71}, {97, 96, 95, 94, 89, 88, 87, 86, 85, 84, 83, 75}, {98, 94, 88, 87, 85, 84, 83, 76, 75, 73}, {93, 91, 89, 84, 83, 77, 72}, {87, 86, 84, 83, 76, 72}, {94, 89, 77, 76, 70}, {98, 94, 89, 87, 85, 83, 75}, {94, 93, 89, 87, 86, 84, 75}, {99, 96, 95, 88, 87, 75}, {95, 93, 90, 86, 85, 79}, {98, 97, 93, 87, 85, 84}, {93, 86, 83, 82}, {84, 83, 82}, {96, 85, 84}, {88, 85}, {92, 89}, {86, 83}, {82}, {82}, {86}, {83}, {83}, {82}, {88}, {}, {}, {}, {}, {}, {}, {}, {}, {}, {}, {}, {}, {}, {}, {}, {}, {}, {}, {}];
n_opt = 600;
dur = [2, 4, 5, 7, 13, 19, 2, 3, 7, 12, 16, 19, 3, 5, 10, 15, 17, 18, 1, 7, 8, 13, 16, 20, 5, 7, 10, 11, 12, 17, 8, 15, 16, 17, 19, 20, 1, 8, 9, 14, 19, 20, 1, 2, 3, 11, 18, 20, 6, 7, 8, 11, 18, 19, 2, 11, 14, 15, 16, 17, 3, 6, 7, 9, 15, 18, 6, 9, 10, 11, 12, 18, 1, 4, 9, 11, 13, 18, 3, 5, 12, 17, 18, 19, 3, 4, 5, 12, 13, 14, 6, 10, 12, 13, 14, 15, 1, 2, 3, 10, 11, 20, 7, 10, 12, 14, 16, 20, 5, 10, 13, 14, 16, 20, 2, 4, 5, 10, 12, 14, 6, 12, 14, 15, 17, 18, 3, 6, 7, 8, 18, 20, 4, 5, 9, 10, 14, 17, 7, 8, 9, 12, 15, 18, 3, 6, 8, 13, 14, 16, 2, 3, 9, 10, 13, 20, 4, 7, 8, 12, 13, 20, 6, 8, 10, 16, 17, 19, 2, 4, 8, 10, 11, 15, 1, 5, 8, 9, 13, 14, 3, 4, 11, 12, 18, 19, 8, 10, 14, 16, 19, 20, 1, 4, 5, 6, 7, 8, 3, 11, 16, 17, 18, 20, 2, 4, 7, 12, 15, 16, 6, 7, 11, 17, 18, 20, 7, 9, 10, 15, 16, 19, 5, 6, 14, 15, 16, 17, 1, 3, 4, 5, 9, 11, 6, 9, 10, 12, 13, 19, 1, 6, 16, 17, 18, 19, 4, 5, 6, 9, 11, 17, 10, 13, 16, 18, 19, 20, 4, 8, 17, 18, 19, 20, 1, 4, 8, 14, 16, 20, 3, 4, 5, 6, 8, 18, 4, 5, 9, 17, 18, 19, 4, 5, 6, 7, 10, 12, 4, 7, 8, 14, 16, 18, 5, 9, 10, 14, 15, 18, 3, 4, 5, 6, 7, 13, 1, 4, 13, 14, 16, 17, 6, 14, 15, 16, 17, 19, 2, 4, 9, 10, 15, 19, 2, 9, 13, 15, 16, 17, 9, 10, 11, 15, 18, 20, 4, 7, 8, 9, 14, 17, 5, 11, 12, 16, 17, 18, 1, 2, 3, 4, 15, 20, 6, 7, 13, 18, 19, 20, 3, 4, 10, 11, 14, 15, 2, 5, 12, 13, 16, 17, 10, 16, 17, 18, 19, 20, 2, 3, 4, 10, 16, 17, 2, 5, 12, 13, 16, 17, 4, 7, 8, 9, 12, 20, 2, 8, 14, 18, 19, 20, 2, 5, 7, 9, 14, 17, 2, 3, 5, 17, 18, 20, 7, 8, 9, 10, 11, 12, 6, 7, 8, 9, 15, 20, 1, 4, 5, 7, 8, 16, 4, 8, 9, 13, 17, 19, 4, 12, 13, 14, 19, 20, 2, 3, 11, 12, 16, 17, 3, 10, 11, 18, 19, 20, 3, 5, 7, 12, 18, 19, 4, 5, 8, 12, 13, 18, 1, 2, 13, 16, 18, 19, 5, 6, 7, 12, 18, 19, 2, 10, 11, 12, 15, 18, 2, 6, 10, 12, 17, 18, 3, 4, 12, 13, 18, 19, 1, 4, 6, 7, 8, 19, 3, 5, 14, 18, 19, 20, 3, 6, 7, 12, 16, 17, 3, 5, 10, 17, 19, 20, 8, 9, 10, 13, 14, 15, 1, 2, 3, 4, 7, 12, 6, 7, 8, 16, 17, 18, 5, 11, 13, 15, 16, 17, 7, 8, 14, 17, 18, 19, 4, 5, 9, 13, 14, 20, 5, 6, 13, 14, 15, 19, 6, 12, 13, 14, 16, 17, 4, 4, 5, 14, 17, 20, 4, 6, 7, 8, 13, 14, 6, 7, 10, 11, 18, 19, 3, 4, 15, 16, 19, 20, 5, 10, 11, 13, 15, 20];
rreq = [|3, 3, 3, 3, 3, 3, 2, 2, 2, 2, 2, 2, 3, 3, 3, 2, 2, 2, 5, 5, 5, 5, 5, 5, 3, 2, 2, 2, 2, 2, 2, 2, 2, 2, 2, 2, 3, 2, 2, 1, 1, 1, 1, 1, 1, 1, 1, 1, 2, 2, 2, 2, 2, 2, 4, 3, 2, 2, 2, 1, 2, 2, 2, 1, 1, 1, 3, 3, 3, 2, 2, 1, 4, 4, 4, 4, 4, 4, 1, 1, 1, 1, 1, 1, 1, 1, 1, 1, 1, 1, 2, 1, 1, 1, 1, 1, 5, 4, 4, 4, 4, 4, 2, 2, 2, 2, 2, 2, 5, 4, 4, 4, 3, 3, 2, 2, 2, 2, 2, 2, 5, 5, 5, 5, 5, 5, 1, 1, 1, 1, 1, 1, 2, 2, 2, 2, 2, 2, 3, 3, 3, 3, 3, 3, 4, 4, 4, 4, 4, 4, 4, 4, 4, 3, 3, 2, 4, 4, 3, 3, 3, 2, 3, 2, 2, 2, 2, 2, 4, 4, 3, 3, 2, 2, 4, 4, 3, 3, 1, 1, 3, 3, 3, 3, 3, 3, 2, 2, 2, 2, 2, 2, 2, 1, 1, 1, 1, 1, 3, 2, 2, 2, 2, 2, 3, 2, 2, 2, 1, 1, 5, 4, 4, 4, 3, 3, 3, 2, 2, 2, 2, 2, 5, 4, 3, 3, 3, 2, 5, 5, 5, 5, 5, 5, 4, 4, 4, 3, 2, 2, 4, 3, 3, 2, 2, 2, 3, 2, 2, 2, 1, 1, 4, 3, 3, 3, 3, 3, 3, 3, 3, 3, 3, 3, 2, 2, 2, 1, 1, 1, 4, 4, 3, 3, 3, 2, 1, 1, 1, 1, 1, 1, 4, 3, 3, 2, 1, 1, 4, 3, 3, 2, 2, 1, 4, 4, 4, 3, 3, 3, 5, 4, 4, 4, 4, 4, 4, 3, 3, 3, 2, 2, 4, 4, 4, 3, 2, 2, 3, 3, 3, 2, 1, 1, 5, 5, 5, 5, 5, 5, 5, 5, 5, 5, 5, 5, 4, 3, 3, 2, 1, 1, 1, 1, 1, 1, 1, 1, 2, 2, 2, 2, 2, 2, 3, 3, 3, 2, 2, 1, 2, 2, 2, 2, 2, 2, 3, 2, 2, 1, 1, 1, 2, 2, 2, 2, 2, 2, 4, 3, 3, 2, 2, 2, 3, 3, 3, 2, 2, 1, 5, 4, 4, 3, 3, 3, 5, 4, 3, 3, 3, 2, 4, 3, 3, 3, 3, 3, 3, 3, 3, 3, 3, 3, 2, 2, 2, 2, 2, 2, 2, 2, 2, 2, 2, 2, 4, 4, 4, 4, 3, 3, 3, 3, 3, 3, 3, 3, 3, 3, 3, 2, 2, 1, 2, 2, 2, 2, 2, 2, 1, 1, 1, 1, 1, 1, 5, 4, 4, 4, 4, 4, 1, 1, 1, 1, 1, 1, 4, 4, 4, 4, 4, 4, 2, 2, 2, 2, 2, 2, 2, 2, 2, 2, 2, 2, 5, 4, 4, 4, 4, 4, 4, 3, 3, 2, 1, 1, 4, 3, 3, 3, 3, 3, 3, 3, 3, 2, 2, 1, 2, 2, 2, 2, 1, 1, 4, 3, 3, 3, 3, 3, 5, 5, 5, 5, 5, 5, 3, 2, 2, 2, 1, 1, 4, 3, 3, 2, 2, 2, 4, 3, 3, 3, 2, 2, 2, 2, 2, 1, 1, 1, 2, 1, 1, 1, 1, 1, 2, 1, 1, 1, 1, 1, 3, 3, 3, 3, 3, 3, 4, 3, 3, 2, 1, 1, 3, 3, 3, 3, 3, 3, 3, 3, 2, 2, 2, 1, 2, 2, 2, 2, 2, 2, 4, 4, 4, 4, 4, 4
 |2, 2, 2, 1, 1, 1, 5, 4, 3, 3, 1, 1, 3, 2, 2, 1, 1, 1, 2, 2, 2, 2, 2, 2, 5, 4, 3, 3, 2, 2, 3, 3, 3, 2, 2, 1, 3, 3, 3, 2, 1, 1, 4, 4, 4, 4, 4, 4, 2, 2, 2, 2, 2, 2, 3, 2, 2, 2, 2, 2, 3, 2, 2, 1, 1, 1, 1, 1, 1, 1, 1, 1, 5, 4, 4, 4, 3, 3, 5, 4, 4, 3, 3, 3, 4, 4, 4, 4, 4, 4, 4, 3, 3, 3, 3, 3, 4, 4, 4, 3, 2, 2, 5, 5, 5, 5, 5, 5, 5, 4, 4, 4, 4, 4, 2, 2, 2, 2, 2, 2, 5, 4, 4, 4, 3, 3, 4, 3, 3, 3, 3, 3, 4, 4, 4, 3, 3, 3, 5, 5, 5, 5, 5, 5, 4, 4, 4, 4, 4, 4, 4, 4, 4, 4, 4, 4, 4, 3, 2, 2, 2, 1, 3, 3, 3, 2, 2, 2, 3, 2, 2, 2, 2, 2, 2, 2, 2, 2, 2, 2, 2, 2, 2, 2, 1, 1, 1, 1, 1, 1, 1, 1, 3, 3, 3, 3, 3, 3, 2, 1, 1, 1, 1, 1, 4, 4, 4, 4, 4, 4, 3, 3, 3, 3, 3, 3, 3, 3, 3, 3, 3, 3, 5, 4, 4, 3, 3, 2, 3, 3, 3, 3, 3, 3, 5, 3, 3, 3, 1, 1, 3, 2, 2, 1, 1, 1, 1, 1, 1, 1, 1, 1, 2, 2, 2, 2, 1, 1, 4, 4, 4, 4, 3, 3, 3, 3, 3, 2, 2, 2, 4, 4, 4, 3, 3, 2, 3, 2, 2, 1, 1, 1, 5, 5, 5, 5, 5, 5, 4, 4, 4, 3, 3, 3, 2, 2, 2, 2, 2, 2, 5, 4, 4, 4, 3, 3, 4, 3, 3, 3, 3, 3, 4, 3, 3, 3, 3, 3, 3, 2, 2, 2, 2, 2, 3, 3, 3, 2, 2, 2, 2, 2, 2, 2, 1, 1, 5, 5, 5, 5, 5, 5, 5, 4, 4, 4, 3, 3, 1, 1, 1, 1, 1, 1, 3, 2, 2, 2, 2, 2, 4, 4, 4, 4, 4, 4, 3, 2, 2, 2, 2, 2, 5, 4, 4, 4, 4, 4, 4, 4, 4, 4, 4, 4, 2, 2, 2, 2, 2, 2, 3, 3, 3, 3, 3, 3, 2, 2, 2, 2, 2, 2, 2, 1, 1, 1, 1, 1, 3, 3, 3, 3, 3, 3, 5, 4, 4, 4, 4, 4, 3, 2, 2, 1, 1, 1, 2, 2, 2, 2, 2, 2, 3, 3, 3, 3, 2, 2, 3, 2, 2, 2, 2, 2, 4, 3, 3, 3, 3, 3, 2, 1, 1, 1, 1, 1, 4, 4, 4, 4, 4, 4, 5, 4, 4, 4, 4, 4, 3, 2, 2, 2, 2, 2, 3, 3, 3, 3, 2, 2, 3, 2, 2, 1, 1, 1, 5, 5, 5, 5, 5, 5, 3, 2, 2, 2, 2, 2, 5, 5, 5, 5, 5, 5, 4, 4, 4, 4, 4, 4, 2, 2, 2, 2, 2, 2, 5, 4, 4, 3, 3, 3, 5, 3, 3, 2, 1, 1, 4, 4, 3, 3, 2, 2, 4, 4, 4, 4, 4, 4, 5, 4, 4, 4, 3, 3, 5, 5, 5, 5, 5, 5, 4, 4, 4, 3, 3, 3, 4, 3, 3, 2, 2, 2, 5, 4, 3, 2, 1, 1, 5, 4, 4, 3, 3, 3, 2, 2, 2, 2, 2, 2, 3, 2, 2, 2, 1, 1, 5, 4, 4, 4, 4, 4, 2, 1, 1, 1, 1, 1
 |9, 9, 9, 9, 9, 9, 18, 16, 13, 10, 4, 4, 13, 12, 12, 11, 11, 11, 2, 2, 2, 2, 2, 2, 15, 13, 11, 10, 9, 7, 17, 17, 16, 14, 14, 12, 16, 15, 13, 12, 11, 8, 16, 14, 12, 10, 10, 8, 12, 9, 9, 7, 6, 6, 1, 1, 1, 1, 1, 1, 10, 9, 8, 6, 3, 2, 9, 6, 5, 4, 3, 3, 18, 14, 14, 8, 7, 3, 13, 12, 11, 9, 8, 8, 6, 6, 6, 5, 5, 4, 8, 7, 7, 7, 6, 6, 11, 11, 11, 11, 11, 11, 17, 15, 13, 12, 11, 8, 15, 13, 11, 10, 9, 7, 18, 16, 15, 15, 13, 13, 8, 8, 8, 8, 8, 8, 19, 16, 14, 12, 12, 9, 18, 17, 17, 15, 15, 14, 18, 16, 12, 10, 8, 8, 16, 12, 12, 10, 8, 5, 17, 15, 10, 8, 5, 5, 12, 12, 12, 12, 12, 12, 17, 15, 13, 13, 10, 10, 18, 15, 15, 14, 11, 10, 16, 15, 13, 11, 11, 9, 11, 9, 7, 7, 4, 4, 11, 8, 8, 6, 3, 2, 14, 12, 11, 9, 8, 7, 4, 3, 3, 2, 2, 2, 13, 12, 12, 11, 10, 9, 13, 11, 10, 8, 8, 7, 12, 11, 10, 10, 8, 8, 15, 10, 9, 8, 4, 2, 2, 2, 2, 2, 2, 2, 8, 6, 6, 4, 3, 2, 19, 17, 14, 13, 11, 10, 12, 12, 11, 9, 9, 7, 6, 6, 5, 4, 2, 2, 7, 6, 5, 4, 3, 3, 13, 13, 11, 9, 7, 4, 7, 6, 6, 5, 5, 5, 13, 12, 11, 10, 9, 8, 12, 12, 10, 10, 8, 8, 19, 16, 16, 15, 13, 12, 8, 7, 5, 3, 3, 2, 14, 12, 12, 8, 7, 4, 4, 4, 4, 4, 4, 4, 18, 16, 14, 13, 11, 10, 16, 12, 12, 8, 6, 4, 12, 11, 9, 9, 6, 6, 9, 8, 6, 5, 3, 1, 14, 11, 10, 8, 7, 7, 20, 17, 16, 12, 11, 10, 13, 10, 10, 8, 6, 5, 20, 16, 15, 13, 10, 8, 9, 7, 6, 5, 5, 4, 14, 14, 14, 14, 14, 14, 4, 4, 4, 4, 4, 4, 10, 8, 5, 4, 3, 2, 16, 11, 10, 9, 5, 3, 6, 4, 4, 4, 2, 2, 10, 9, 9, 8, 6, 5, 4, 3, 3, 2, 2, 2, 15, 13, 12, 12, 11, 10, 19, 18, 18, 18, 17, 17, 14, 14, 14, 13, 13, 13, 14, 13, 13, 13, 13, 13, 13, 11, 11, 9, 6, 5, 15, 14, 14, 14, 14, 14, 4, 4, 4, 4, 4, 4, 6, 6, 5, 4, 2, 1, 13, 12, 12, 12, 12, 12, 18, 17, 15, 15, 14, 13, 12, 10, 8, 7, 7, 4, 14, 10, 8, 7, 6, 4, 17, 17, 15, 12, 11, 10, 18, 17, 17, 16, 14, 14, 6, 6, 5, 5, 3, 3, 7, 7, 5, 5, 3, 2, 9, 8, 6, 5, 3, 2, 15, 15, 15, 14, 14, 14, 18, 13, 12, 8, 5, 2, 17, 14, 12, 11, 10, 7, 19, 15, 14, 11, 9, 8, 17, 16, 16, 15, 15, 14, 13, 12, 11, 10, 8, 8, 7, 7, 7, 7, 7, 7, 16, 14, 13, 11, 9, 7, 19, 18, 17, 17, 15, 15, 18, 14, 14, 11, 7, 5, 9, 9, 9, 9, 9, 9, 8, 8, 8, 7, 7, 6, 6, 5, 4, 3, 3, 2, 19, 18, 17, 16, 16, 15, 3, 2, 2, 2, 2, 2
 |7, 6, 5, 5, 5, 4, 19, 14, 10, 10, 7, 1, 14, 11, 9, 9, 5, 2, 17, 16, 12, 8, 6, 4, 13, 12, 12, 12, 12, 12, 11, 8, 7, 5, 2, 1, 19, 17, 15, 13, 12, 10, 4, 4, 4, 4, 4, 4, 9, 9, 7, 6, 6, 5, 16, 15, 14, 13, 13, 12, 20, 19, 19, 18, 18, 17, 12, 12, 11, 10, 9, 8, 13, 11, 10, 10, 8, 7, 11, 10, 8, 7, 7, 5, 17, 15, 10, 7, 7, 4, 13, 11, 10, 7, 6, 4, 8, 6, 5, 5, 4, 3, 9, 9, 8, 6, 5, 4, 12, 9, 8, 7, 6, 5, 5, 5, 5, 5, 5, 5, 3, 3, 3, 2, 2, 2, 14, 13, 13, 13, 13, 13, 5, 4, 4, 4, 4, 4, 6, 6, 6, 6, 6, 6, 8, 7, 6, 5, 5, 4, 11, 10, 10, 8, 5, 5, 14, 12, 9, 8, 8, 5, 8, 6, 6, 4, 2, 2, 19, 17, 16, 14, 10, 9, 15, 15, 12, 11, 6, 4, 17, 15, 10, 8, 6, 3, 3, 2, 2, 1, 1, 1, 10, 10, 9, 7, 5, 5, 10, 9, 8, 8, 8, 7, 15, 15, 15, 14, 14, 14, 12, 11, 11, 11, 11, 11, 12, 11, 9, 8, 8, 7, 15, 12, 9, 8, 5, 5, 13, 11, 10, 9, 8, 8, 13, 12, 12, 12, 12, 12, 13, 10, 9, 7, 5, 3, 13, 12, 9, 8, 7, 6, 1, 1, 1, 1, 1, 1, 13, 13, 12, 11, 10, 10, 14, 14, 12, 11, 10, 10, 12, 11, 11, 11, 10, 10, 15, 15, 14, 12, 10, 9, 17, 17, 16, 15, 15, 14, 5, 3, 3, 3, 1, 1, 14, 12, 10, 10, 9, 8, 17, 13, 9, 9, 3, 2, 16, 16, 16, 16, 16, 16, 11, 10, 9, 9, 7, 7, 18, 17, 17, 16, 16, 15, 12, 11, 10, 8, 7, 6, 16, 15, 14, 14, 14, 13, 15, 13, 12, 10, 8, 8, 4, 3, 3, 2, 2, 2, 5, 5, 5, 5, 5, 5, 16, 15, 15, 14, 14, 13, 7, 5, 4, 4, 3, 2, 16, 16, 16, 16, 16, 16, 4, 3, 3, 3, 2, 2, 14, 14, 13, 13, 12, 12, 15, 14, 14, 13, 11, 11, 15, 13, 12, 9, 7, 5, 11, 11, 10, 10, 9, 8, 17, 16, 14, 11, 8, 6, 10, 9, 8, 6, 4, 2, 19, 19, 19, 19, 19, 19, 10, 10, 9, 7, 6, 6, 15, 15, 14, 13, 12, 10, 8, 7, 7, 6, 6, 5, 7, 7, 6, 6, 4, 4, 8, 7, 5, 5, 4, 2, 16, 16, 16, 16, 16, 16, 9, 7, 6, 6, 5, 3, 18, 18, 15, 14, 14, 11, 12, 10, 9, 8, 6, 5, 3, 3, 3, 3, 3, 3, 16, 15, 13, 13, 11, 10, 15, 15, 15, 15, 15, 15, 12, 11, 11, 11, 11, 11, 14, 12, 11, 7, 6, 3, 16, 15, 15, 15, 14, 13, 7, 7, 7, 6, 6, 5, 12, 10, 8, 5, 5, 3, 19, 19, 18, 18, 18, 17, 9, 8, 8, 6, 5, 5, 18, 18, 15, 13, 11, 10, 6, 6, 5, 4, 3, 2, 12, 9, 8, 7, 6, 6, 4, 4, 4, 3, 3, 3, 18, 13, 10, 8, 6, 3, 11, 11, 8, 8, 4, 3, 3, 3, 3, 3, 3, 3, 10, 8, 8, 6, 4, 2, 10, 9, 7, 7, 4, 4, 14, 14, 14, 13, 13, 13, 14, 12, 10, 7, 6, 4
 |10, 9, 6, 6, 3, 2, 18, 14, 13, 13, 10, 8, 16, 15, 15, 14, 12, 12, 18, 18, 17, 16, 16, 15, 13, 11, 8, 6, 5, 3, 8, 7, 7, 7, 7, 7, 10, 10, 10, 10, 10, 10, 13, 13, 13, 12, 11, 11, 11, 11, 10, 8, 7, 6, 18, 18, 16, 15, 13, 12, 19, 19, 19, 19, 19, 19, 17, 14, 12, 10, 7, 3, 11, 9, 6, 6, 5, 2, 10, 10, 9, 9, 7, 7, 20, 20, 20, 20, 20, 20, 14, 13, 12, 11, 10, 10, 15, 14, 14, 14, 14, 14, 8, 7, 7, 6, 6, 5, 9, 8, 7, 6, 6, 5, 18, 18, 17, 17, 16, 16, 19, 17, 16, 16, 15, 14, 14, 13, 13, 13, 13, 13, 16, 15, 13, 10, 9, 7, 20, 17, 15, 12, 12, 9, 19, 17, 15, 13, 11, 10, 19, 19, 19, 18, 18, 18, 11, 11, 11, 11, 10, 10, 18, 17, 17, 16, 14, 14, 16, 12, 12, 9, 6, 5, 12, 12, 11, 11, 10, 9, 16, 15, 12, 11, 5, 3, 7, 5, 4, 3, 3, 1, 17, 17, 14, 11, 11, 8, 16, 13, 12, 11, 11, 9, 6, 5, 4, 4, 3, 3, 19, 15, 15, 14, 12, 10, 14, 12, 8, 7, 6, 3, 5, 5, 4, 4, 4, 3, 11, 9, 9, 8, 7, 6, 19, 18, 18, 17, 17, 17, 15, 15, 11, 9, 9, 6, 8, 6, 6, 5, 4, 3, 8, 8, 7, 4, 4, 3, 16, 15, 12, 12, 9, 8, 4, 4, 4, 4, 4, 4, 11, 11, 9, 8, 7, 7, 17, 15, 14, 14, 13, 11, 19, 18, 15, 12, 11, 9, 17, 16, 15, 15, 15, 14, 12, 12, 10, 10, 8, 7, 9, 7, 6, 4, 3, 2, 20, 17, 14, 11, 11, 7, 13, 10, 10, 9, 7, 6, 17, 16, 14, 13, 12, 12, 18, 14, 11, 9, 6, 4, 4, 3, 3, 2, 2, 1, 15, 15, 15, 15, 15, 15, 13, 12, 10, 9, 7, 6, 19, 18, 18, 18, 17, 17, 20, 18, 15, 14, 13, 11, 9, 9, 9, 9, 9, 9, 18, 16, 15, 13, 13, 12, 12, 12, 9, 8, 6, 4, 3, 3, 2, 2, 2, 1, 6, 5, 5, 4, 4, 3, 15, 14, 12, 11, 11, 10, 16, 12, 10, 9, 6, 5, 18, 14, 12, 10, 8, 8, 15, 15, 15, 15, 14, 14, 11, 9, 8, 7, 6, 5, 19, 19, 19, 19, 19, 19, 18, 13, 12, 9, 7, 4, 16, 16, 15, 13, 10, 9, 18, 18, 17, 17, 16, 16, 8, 6, 6, 3, 3, 1, 15, 15, 13, 11, 10, 7, 10, 10, 10, 10, 10, 10, 11, 9, 8, 6, 6, 5, 13, 12, 10, 9, 6, 3, 17, 17, 16, 14, 14, 12, 3, 2, 2, 2, 2, 2, 15, 14, 14, 13, 13, 13, 17, 13, 11, 11, 7, 6, 17, 17, 16, 16, 14, 14, 15, 15, 14, 14, 13, 12, 8, 6, 6, 5, 5, 4, 19, 15, 13, 13, 11, 7, 10, 10, 8, 8, 6, 6, 11, 11, 7, 5, 5, 1, 15, 14, 13, 12, 10, 8, 6, 5, 5, 4, 4, 4, 19, 17, 17, 16, 16, 15, 5, 4, 4, 4, 4, 4, 13, 13, 13, 12, 12, 12, 6, 6, 6, 6, 6, 6, 16, 14, 14, 11, 10, 8, 11, 10, 10, 9, 9, 9, 14, 12, 12, 9, 7, 4, 14, 10, 9, 6, 5, 4, 17, 15, 15, 13, 12, 11
 |8, 8, 8, 7, 7, 6, 15, 15, 13, 13, 11, 10, 18, 15, 14, 13, 10, 8, 17, 13, 13, 12, 9, 8, 13, 9, 7, 6, 3, 3, 14, 14, 13, 10, 10, 9, 12, 12, 12, 12, 12, 12, 7, 7, 5, 3, 3, 2, 14, 14, 13, 11, 11, 10, 18, 18, 17, 15, 12, 12, 17, 16, 16, 15, 14, 14, 10, 9, 9, 9, 8, 8, 16, 15, 14, 14, 13, 12, 18, 17, 17, 17, 16, 15, 13, 12, 11, 11, 10, 9, 12, 11, 9, 7, 7, 4, 6, 5, 5, 4, 3, 3, 17, 17, 17, 17, 17, 17, 15, 15, 12, 12, 11, 9, 15, 14, 14, 13, 13, 12, 14, 13, 11, 8, 4, 3, 11, 10, 9, 8, 6, 6, 16, 16, 14, 14, 13, 11, 19, 14, 12, 9, 4, 1, 19, 18, 18, 18, 17, 17, 19, 16, 13, 11, 7, 4, 8, 8, 8, 8, 7, 7, 18, 13, 13, 7, 6, 4, 15, 14, 13, 13, 12, 12, 11, 9, 7, 5, 5, 1, 16, 16, 15, 13, 13, 12, 14, 12, 12, 11, 9, 9, 10, 9, 9, 8, 8, 7, 9, 7, 7, 6, 5, 3, 11, 11, 11, 10, 10, 9, 16, 15, 14, 13, 12, 11, 5, 4, 4, 3, 3, 3, 16, 16, 13, 13, 10, 8, 17, 16, 16, 13, 13, 11, 12, 11, 10, 9, 8, 8, 10, 10, 10, 9, 8, 8, 10, 10, 8, 8, 6, 5, 14, 11, 10, 8, 8, 6, 19, 14, 13, 9, 9, 4, 17, 16, 15, 15, 14, 13, 12, 12, 12, 12, 12, 12, 12, 10, 9, 7, 7, 6, 16, 15, 15, 14, 14, 13, 19, 18, 18, 17, 15, 14, 6, 4, 4, 4, 2, 2, 16, 14, 12, 12, 9, 8, 19, 17, 17, 16, 15, 14, 11, 9, 8, 7, 5, 5, 10, 8, 7, 7, 6, 5, 17, 15, 13, 9, 7, 3, 15, 14, 11, 10, 7, 6, 10, 7, 7, 5, 4, 2, 13, 12, 12, 11, 10, 9, 15, 14, 11, 9, 8, 6, 3, 3, 3, 3, 3, 3, 19, 18, 18, 18, 18, 18, 18, 16, 14, 12, 10, 7, 15, 14, 14, 14, 14, 14, 16, 15, 14, 13, 11, 11, 14, 12, 11, 10, 9, 8, 7, 7, 6, 4, 4, 3, 12, 12, 12, 12, 12, 12, 8, 8, 7, 7, 7, 6, 16, 16, 16, 16, 16, 16, 20, 15, 15, 13, 10, 7, 18, 18, 18, 18, 18, 17, 16, 15, 14, 13, 13, 12, 9, 7, 7, 4, 3, 2, 8, 8, 8, 7, 6, 6, 16, 14, 12, 12, 11, 9, 9, 9, 7, 5, 3, 3, 3, 3, 3, 2, 2, 1, 12, 10, 8, 8, 7, 5, 12, 11, 10, 8, 7, 6, 18, 17, 16, 15, 13, 12, 8, 7, 6, 5, 4, 3, 16, 14, 11, 10, 9, 7, 2, 1, 1, 1, 1, 1, 6, 6, 6, 6, 6, 6, 17, 15, 14, 13, 12, 11, 14, 12, 11, 8, 6, 5, 15, 13, 12, 11, 11, 9, 16, 14, 13, 12, 11, 9, 9, 7, 6, 6, 4, 3, 16, 16, 15, 15, 15, 14, 9, 8, 7, 7, 5, 4, 16, 13, 10, 8, 8, 6, 5, 5, 3, 3, 1, 1, 14, 12, 11, 9, 9, 7, 14, 13, 12, 10, 7, 5, 8, 9, 8, 7, 6, 6, 19, 18, 17, 16, 14, 13, 15, 12, 11, 9, 6, 6, 18, 15, 12, 11, 9, 5, 17, 16, 14, 13, 9, 8|];